p wcnf 172 258 259 
1 -91 38 0 
1 -37 5 0 
1 23 167 0 
1 -120 -27 0 
1 -68 -71 0 
1 -74 -133 0 
1 -49 135 0 
1 -6 -63 0 
1 103 65 0 
1 -42 39 0 
1 166 -120 0 
1 -159 -55 0 
1 -119 -120 0 
1 -129 108 0 
1 -134 -79 0 
1 114 51 0 
1 159 134 0 
1 -2 149 0 
1 57 -52 0 
1 99 -28 0 
1 29 122 0 
1 -77 -11 0 
1 103 132 0 
1 -29 57 0 
1 150 -72 0 
1 -119 73 0 
1 44 -95 0 
1 98 62 0 
1 54 -101 0 
1 96 -145 0 
1 -6 -160 0 
1 101 80 0 
1 -134 95 0 
1 -8 92 0 
1 -161 172 0 
1 -4 110 0 
1 15 -151 0 
1 77 54 0 
1 -98 -165 0 
1 -97 -96 0 
1 -62 -54 0 
1 -16 4 0 
1 153 -3 0 
1 36 60 0 
1 -32 123 0 
1 122 -101 0 
1 96 -149 0 
1 -76 132 0 
1 -21 98 0 
1 -59 68 0 
1 79 -158 0 
1 -29 -54 0 
1 63 -81 0 
1 -158 135 0 
1 -33 -88 0 
1 -103 79 0 
1 -52 -113 0 
1 64 -51 0 
1 -93 -22 0 
1 111 21 0 
1 -105 106 0 
1 -122 164 0 
1 -68 13 0 
1 62 1 0 
1 -19 -170 0 
1 -39 -36 0 
1 -36 -103 0 
1 -106 160 0 
1 73 168 0 
1 84 -25 0 
1 166 -151 0 
1 -20 -88 0 
1 -48 137 0 
1 -128 -122 0 
1 112 140 0 
1 67 -29 0 
1 51 -96 0 
1 48 -79 0 
1 46 78 0 
1 140 -106 0 
1 -154 119 0 
1 102 118 0 
1 106 -59 0 
1 128 53 0 
1 91 -73 0 
1 -138 -137 0 
1 -2 -69 0 
1 -24 -61 0 
1 39 -93 0 
1 117 -172 0 
1 47 154 0 
1 -32 112 0 
1 -64 101 0 
1 81 127 0 
1 -83 133 0 
1 -105 1 0 
1 -122 57 0 
1 11 166 0 
1 68 -100 0 
1 63 119 0 
1 -101 -134 0 
1 -163 124 0 
1 -102 -3 0 
1 139 16 0 
1 53 98 0 
1 70 -164 0 
1 -147 2 0 
1 -58 -134 0 
1 111 134 0 
1 -105 -19 0 
1 -86 -6 0 
1 89 -48 0 
1 65 156 0 
1 99 -12 0 
1 10 -124 0 
1 30 -141 0 
1 -149 167 0 
1 -76 94 0 
1 44 -61 0 
1 127 132 0 
1 79 136 0 
1 19 93 0 
1 -25 68 0 
1 -125 -163 0 
1 142 -152 0 
1 -69 12 0 
1 -70 -15 0 
1 -144 -135 0 
1 47 -152 0 
1 31 115 0 
1 129 91 0 
1 -156 104 0 
1 -71 94 0 
1 27 92 0 
1 -123 88 0 
1 -125 -22 0 
1 141 11 0 
1 -51 8 0 
1 -156 53 0 
1 -26 -15 0 
1 -143 30 0 
1 48 66 0 
1 -129 2 0 
1 89 -66 0 
1 -34 92 0 
1 -152 74 0 
1 151 -106 0 
1 149 171 0 
1 -110 -102 0 
1 -87 117 0 
1 25 -159 0 
1 78 44 0 
1 -97 138 0 
1 -21 104 0 
1 65 -129 0 
1 120 -7 0 
1 13 44 0 
1 -137 -147 0 
1 -114 156 0 
1 -131 84 0 
1 28 -100 0 
1 -32 36 0 
1 -73 97 0 
1 -17 -120 0 
1 -91 58 0 
1 -132 74 0 
1 88 153 0 
1 48 167 0 
1 -160 -159 0 
1 -137 -18 0 
1 -96 -42 0 
1 -147 -162 0 
1 -104 -155 0 
1 -100 -154 0 
1 113 -41 0 
1 -8 -98 0 
1 98 -45 0 
1 -157 -49 0 
1 144 -120 0 
1 -49 115 0 
1 6 -114 0 
1 -145 -124 0 
1 -98 -24 0 
1 -29 -40 0 
1 -110 133 0 
1 -87 -127 0 
1 23 -121 0 
1 -149 37 0 
1 -45 28 0 
1 10 -159 0 
1 -12 -153 0 
1 14 -22 0 
1 -66 -1 0 
1 -123 -2 0 
1 -141 165 0 
1 27 151 0 
1 -157 172 0 
1 63 -151 0 
1 -4 35 0 
1 -87 -130 0 
1 -22 -57 0 
1 149 -171 0 
1 42 95 0 
1 -84 116 0 
1 -83 136 0 
1 155 -84 0 
1 -2 55 0 
1 65 164 0 
1 -139 29 0 
1 143 35 0 
1 165 24 0 
1 96 10 0 
1 163 87 0 
1 67 -44 0 
1 -6 125 0 
1 -11 12 0 
1 171 39 0 
1 -75 -50 0 
1 116 -81 0 
1 74 161 0 
1 -46 161 0 
1 54 102 0 
1 -75 -42 0 
1 156 -32 0 
1 -48 -167 0 
1 -159 149 0 
1 162 53 0 
1 -162 -150 0 
1 -169 164 0 
1 149 -128 0 
1 25 154 0 
1 28 -128 0 
1 -137 -141 0 
1 29 -61 0 
1 -147 -149 0 
1 26 -28 0 
1 27 -162 0 
1 22 34 0 
1 126 -53 0 
1 60 115 0 
1 -115 -104 0 
1 -136 94 0 
1 -121 -34 0 
1 55 -77 0 
1 124 106 0 
1 -169 -42 0 
1 -79 -8 0 
1 -116 -61 0 
1 -61 70 0 
1 128 12 0 
1 -65 -116 0 
1 -144 -56 0 
1 -47 109 0 
1 -25 -135 0 
1 -150 -65 0 
1 77 -71 0 
1 -95 148 0 
1 153 36 0 
